8345
8420
8341
8253
8417
8360
8349
8334
8251
8114
8374
8423
8360
8269
8437
8185
8304
8410
8471
8166
8356
8335
8431
8335
8421
8285
8314
8443
8300
8287
8420
8405
8429
8415
8198
8312
8350
8373
8282
8390
8330
8047
8376
8407
8314
8355
8291
8167
8313
8383
8333
8422
8383
8419
8364
8447
8331
8033
8469
8379
8425
8356
8297
8250
8446
8271
8166
8372
8375
8377
8410
8376
8356
8291
8367
8221
8374
8165
8357
8251
8370
8382
8156
8249
8144
8345
8437
8287
8329
8288
8447
8288
8286
8349
8391
8219
8269
8531
8333
8433
